#This is Python generated data file for Pyomo model
#_author_:W. Bukhsh
#Time stamp: 2023-06-29 15:44:13.675401
set B:=
1
2
3
4
5
6
7
8
9
10
11
12
13
14
;
set G:=
G1
G2
G3
G4
G5
;
set D:=
D1
D2
D3
D4
D5
D6
D7
D8
D9
D10
D11
D12
D13
D14
;
set DNeg:=
;
param VOLL:=
D1 100000.0
D2 100000.0
D3 100000.0
D4 100000.0
D5 100000.0
D6 100000.0
D7 100000.0
D8 100000.0
D9 100000.0
D10 100000.0
D11 100000.0
D12 100000.0
D13 100000.0
D14 100000.0
;
param baseMVA:=
100
;
set LE:=
 1 
 2;
set L:=
L1-12
L2-15
L3-23
L4-24
L5-25
L6-34
L7-45
L8-611
L9-612
L10-613
L11-78
L12-79
L13-910
L14-914
L15-1011
L16-1213
L17-1314
;
set TRANSF:= 
T1-47
T2-49
T3-56
;
set Gbs:=
1 G1
2 G2
3 G3
6 G4
8 G5
;
set Dbs:=
1 D1
2 D2
3 D3
4 D4
5 D5
6 D6
7 D7
8 D8
9 D9
10 D10
11 D11
12 D12
13 D13
14 D14
;
set b0:=
1
;
param A:=
L1-12 1 1
L2-15 1 1
L3-23 1 2
L4-24 1 2
L5-25 1 2
L6-34 1 3
L7-45 1 4
L8-611 1 6
L9-612 1 6
L10-613 1 6
L11-78 1 7
L12-79 1 7
L13-910 1 9
L14-914 1 9
L15-1011 1 10
L16-1213 1 12
L17-1314 1 13
L1-12 2 2
L2-15 2 5
L3-23 2 3
L4-24 2 4
L5-25 2 5
L6-34 2 4
L7-45 2 5
L8-611 2 11
L9-612 2 12
L10-613 2 13
L11-78 2 8
L12-79 2 9
L13-910 2 10
L14-914 2 14
L15-1011 2 11
L16-1213 2 13
L17-1314 2 14
;
param AT:= 
T1-47 1 4
T2-49 1 4
T3-56 1 5
T1-47 2 7
T2-49 2 9
T3-56 2 6
;
param PGmin:=
G1 0.0
G2 0.0
G3 0.0
G4 0.0
G5 0.0
;
param PGmax:=
G1 1.0
G2 1.4
G3 1.0
G4 1.0
G5 3.0
;
param SLmax:=
L1-12 99.99
L2-15 99.99
L3-23 99.99
L4-24 99.99
L5-25 99.99
L6-34 99.99
L7-45 99.99
L8-611 99.99
L9-612 99.99
L10-613 99.99
L11-78 99.99
L12-79 99.99
L13-910 99.99
L14-914 99.99
L15-1011 99.99
L16-1213 99.99
L17-1314 99.99
;
param SLmaxT:=
T1-47 99.99
T2-49 99.99
T3-56 99.99
;
param c2:=
G1 0.0430292599
G2 0.25
G3 0.01
G4 0.01
G5 0.01
;
param c1:=
G1 20.0
G2 20.0
G3 40.0
G4 40.0
G5 20.0
;
param c0:=
G1 0.0
G2 0.0
G3 0.0
G4 0.0
G5 0.0
;
set SHUNT:=
S9
;
set SHUNTbs:=
9 S9
;
param GB:=
S9 0.0
;
param BB:=
S9 0.19
;
param QD:=
D1 0.0
D2 0.127
D3 0.19
D4 -0.039
D5 0.016
D6 0.075
D7 0.0
D8 0.0
D9 0.166
D10 0.057999999999999996
D11 0.018000000000000002
D12 0.016
D13 0.057999999999999996
D14 0.05
;
param G11:=
L1-12 4.999131600798035
L2-15 1.025897454970189
L3-23 1.1350191923073958
L4-24 1.6860331506149429
L5-25 1.7011396670944048
L6-34 1.9859757099255606
L7-45 6.840980661495671
L8-611 1.9550285631772606
L9-612 1.5259674404509738
L10-613 3.0989274038379873
L11-78 0.0
L12-79 0.0
L13-910 3.902049552447428
L14-914 1.4240054870199312
L15-1011 1.8808847537003996
L16-1213 2.4890245868219187
L17-1314 1.1369941578063267
;
param G12:=
L1-12 -4.999131600798035
L2-15 -1.025897454970189
L3-23 -1.1350191923073958
L4-24 -1.6860331506149429
L5-25 -1.7011396670944048
L6-34 -1.9859757099255606
L7-45 -6.840980661495671
L8-611 -1.9550285631772606
L9-612 -1.5259674404509738
L10-613 -3.0989274038379873
L11-78 -0.0
L12-79 -0.0
L13-910 -3.902049552447428
L14-914 -1.4240054870199312
L15-1011 -1.8808847537003996
L16-1213 -2.4890245868219187
L17-1314 -1.1369941578063267
;
param G21:=
L1-12 -4.999131600798035
L2-15 -1.025897454970189
L3-23 -1.1350191923073958
L4-24 -1.6860331506149429
L5-25 -1.7011396670944048
L6-34 -1.9859757099255606
L7-45 -6.840980661495671
L8-611 -1.9550285631772606
L9-612 -1.5259674404509738
L10-613 -3.0989274038379873
L11-78 -0.0
L12-79 -0.0
L13-910 -3.902049552447428
L14-914 -1.4240054870199312
L15-1011 -1.8808847537003996
L16-1213 -2.4890245868219187
L17-1314 -1.1369941578063267
;
param G22:=
L1-12 4.999131600798035
L2-15 1.025897454970189
L3-23 1.1350191923073958
L4-24 1.6860331506149429
L5-25 1.7011396670944048
L6-34 1.9859757099255606
L7-45 6.840980661495671
L8-611 1.9550285631772606
L9-612 1.5259674404509738
L10-613 3.0989274038379873
L11-78 0.0
L12-79 0.0
L13-910 3.902049552447428
L14-914 1.4240054870199312
L15-1011 1.8808847537003996
L16-1213 2.4890245868219187
L17-1314 1.1369941578063267
;
param B11:=
L1-12 -15.23668652317955
L2-15 -4.210383682334831
L3-23 -4.759963151757718
L4-24 -5.098838325872082
L5-25 -5.176627397969713
L6-34 -5.06241697759392
L7-45 -21.578553981691588
L8-611 -4.0940743442404415
L9-612 -3.1759639650294
L10-613 -6.102755448193115
L11-78 -5.676979846721544
L12-79 -9.090082719752749
L13-910 -10.365394127060915
L14-914 -3.0290504569306034
L15-1011 -4.402943749460521
L16-1213 -2.251974626172212
L17-1314 -2.314963475105352
;
param B12:=
L1-12 15.26308652317955
L2-15 4.234983682334831
L3-23 4.781863151757718
L4-24 5.115838325872082
L5-25 5.193927397969713
L6-34 5.0688169775939205
L7-45 21.578553981691588
L8-611 4.0940743442404415
L9-612 3.1759639650294
L10-613 6.102755448193115
L11-78 5.676979846721544
L12-79 9.090082719752749
L13-910 10.365394127060915
L14-914 3.0290504569306034
L15-1011 4.402943749460521
L16-1213 2.251974626172212
L17-1314 2.314963475105352
;
param B21:=
L1-12 15.26308652317955
L2-15 4.234983682334831
L3-23 4.781863151757718
L4-24 5.115838325872082
L5-25 5.193927397969713
L6-34 5.0688169775939205
L7-45 21.578553981691588
L8-611 4.0940743442404415
L9-612 3.1759639650294
L10-613 6.102755448193115
L11-78 5.676979846721544
L12-79 9.090082719752749
L13-910 10.365394127060915
L14-914 3.0290504569306034
L15-1011 4.402943749460521
L16-1213 2.251974626172212
L17-1314 2.314963475105352
;
param B22:=
L1-12 -15.23668652317955
L2-15 -4.210383682334831
L3-23 -4.759963151757718
L4-24 -5.098838325872082
L5-25 -5.176627397969713
L6-34 -5.06241697759392
L7-45 -21.578553981691588
L8-611 -4.0940743442404415
L9-612 -3.1759639650294
L10-613 -6.102755448193115
L11-78 -5.676979846721544
L12-79 -9.090082719752749
L13-910 -10.365394127060915
L14-914 -3.0290504569306034
L15-1011 -4.402943749460521
L16-1213 -2.251974626172212
L17-1314 -2.314963475105352
;
param G11T:=
T1-47 0.0
T2-49 0.0
T3-56 0.0
;
param G12T:=
T1-47 -0.0
T2-49 -0.0
T3-56 -0.0
;
param G21T:=
T1-47 -0.0
T2-49 -0.0
T3-56 -0.0
;
param G22T:=
T1-47 0.0
T2-49 0.0
T3-56 0.0
;
param B11T:=
T1-47 -4.999501697665993
T2-49 -1.914860224784211
T3-56 -4.568074394048695
;
param B12T:=
T1-47 4.889512660317341
T2-49 1.8554995578159006
T3-56 4.257445335253384
;
param B21T:=
T1-47 4.889512660317341
T2-49 1.8554995578159006
T3-56 4.257445335253384
;
param B22T:=
T1-47 -4.781943381790359
T2-49 -1.7979790715236075
T3-56 -3.9679390524561544
;
param QGmin:=
G1 0.0
G2 -0.4
G3 0.0
G4 -0.06
G5 -0.06
;
param QGmax:=
G1 0.1
G2 0.5
G3 0.4
G4 0.24
G5 0.24
;
param Vmin:=
1 0.94
2 0.94
3 0.94
4 0.94
5 0.94
6 0.94
7 0.94
8 0.94
9 0.94
10 0.94
11 0.94
12 0.94
13 0.94
14 0.94
;
param Vmax:=
1 1.06
2 1.06
3 1.06
4 1.06
5 1.06
6 1.06
7 1.06
8 1.06
9 1.06
10 1.06
11 1.06
12 1.06
13 1.06
14 1.06
;
set T:= 
0
1
2
3
4
5
6
7
8
9
;
set TRed:= 
1
2
3
4
5
6
7
8
9
;
set Tstart:= 
0
;
param Tend:= 
9
;
param PD:=
D1 0 0.1
D1 1 0.1
D1 2 0.1
D1 3 0.2
D1 4 0.2
D1 5 0.2
D1 6 0.2
D1 7 0.2
D1 8 0.2
D1 9 0.2
D2 0 0.01
D2 1 0.02
D2 2 0.03
D2 3 0.0
D2 4 0.2
D2 5 0.3
D2 6 0.217
D2 7 0.0
D2 8 0.7
D2 9 0.217
D3 0 0.94
D3 1 0.94
D3 2 0.8
D3 3 0.5
D3 4 0.0
D3 5 0.0
D3 6 0.0
D3 7 0.0
D3 8 0.0
D3 9 0.0
D4 0 0.0
D4 1 0.0
D4 2 0.0
D4 3 0.0
D4 4 0.0
D4 5 0.0
D4 6 0.0
D4 7 0.0
D4 8 0.0
D4 9 0.0
D5 0 0.076
D5 1 0.076
D5 2 0.1
D5 3 0.1
D5 4 0.1
D5 5 0.1
D5 6 0.3
D5 7 0.3
D5 8 0.3
D5 9 0.3
D6 0 0.11
D6 1 0.11
D6 2 0.2
D6 3 0.25
D6 4 0.3
D6 5 0.4
D6 6 0.4
D6 7 0.4
D6 8 0.5
D6 9 0.5
D7 0 0.0
D7 1 0.0
D7 2 0.0
D7 3 0.05
D7 4 0.05
D7 5 0.05
D7 6 0.05
D7 7 0.05
D7 8 0.05
D7 9 0.05
D8 0 0.0
D8 1 0.0
D8 2 0.0
D8 3 0.0
D8 4 0.0
D8 5 0.1
D8 6 0.1
D8 7 0.1
D8 8 0.1
D8 9 0.0
D9 0 0.3
D9 1 0.3
D9 2 0.3
D9 3 0.3
D9 4 0.3
D9 5 0.0
D9 6 0.0
D9 7 0.0
D9 8 0.0
D9 9 0.0
D10 0 0.09
D10 1 0.09
D10 2 0.09
D10 3 0.0
D10 4 0.0
D10 5 0.0
D10 6 0.0
D10 7 0.0
D10 8 0.0
D10 9 0.0
D11 0 0.035
D11 1 0.035
D11 2 0.035
D11 3 0.035
D11 4 0.035
D11 5 0.0
D11 6 0.0
D11 7 0.0
D11 8 0.0
D11 9 0.0
D12 0 0.061
D12 1 0.061
D12 2 0.061
D12 3 0.061
D12 4 0.0
D12 5 0.0
D12 6 0.0
D12 7 0.0
D12 8 0.0
D12 9 0.0
D13 0 0.135
D13 1 0.135
D13 2 0.135
D13 3 0.135
D13 4 0.135
D13 5 0.0
D13 6 0.0
D13 7 0.0
D13 8 0.135
D13 9 0.135
D14 0 0.149
D14 1 0.149
D14 2 0.149
D14 3 0.149
D14 4 0.0
D14 5 0.0
D14 6 0.0
D14 7 0.149
D14 8 0.149
D14 9 0.149
;
set BATTERY:=
B1
B2
;
set Bbs:=
1 B1
2 B2
;
param PCmax:=
B1 1.0
B2 2.0
;
param PCmin:=
B1 0.0
B2 0.0
;
param PDmax:=
B1 1.0
B2 2.0
;
param PDmin:=
B1 0.0
B2 0.0
;
param nchar:=
B1 0.7
B2 0.6
;
param ndis:=
B1 0.8
B2 0.7
;
param EMAX:=
B1 2.0
B2 1.5
;
param EMIN:=
B1 0.7
B2 0.0
;
param E0:=
B1 1.5
B2 1.0
;
param c3:=
B1 3.0
B2 3.0
;
set S:=
S1
S2
;
set Sbs:=
4 S1
10 S2
;
param PS:=
S1 0 0.0
S1 1 0.0
S1 2 0.0
S1 3 0.0
S1 4 0.5
S1 5 1.0
S1 6 1.0
S1 7 0.5
S1 8 0.1
S1 9 0.2
S2 0 0.0
S2 1 0.0
S2 2 0.0
S2 3 0.0
S2 4 0.5
S2 5 1.0
S2 6 1.0
S2 7 0.5
S2 8 0.1
S2 9 0.2
;
param QS:=
S1 0 0.0
S1 1 0.0
S1 2 0.0
S1 3 0.0
S1 4 0.1
S1 5 0.2
S1 6 0.2
S1 7 0.1
S1 8 0.0
S1 9 0.0
S2 0 0.0
S2 1 0.0
S2 2 0.0
S2 3 0.0
S2 4 0.1
S2 5 0.2
S2 6 0.2
S2 7 0.1
S2 8 0.0
S2 9 0.0
;
param c4:=
S1 1
S1 1
S1 1
S1 1
S1 1
S1 1
S1 1
S1 1
S1 1
S1 1
S2 1
S2 1
S2 1
S2 1
S2 1
S2 1
S2 1
S2 1
S2 1
S2 1
;
